DATASET = "thpack3";
INSTANCE = "050";

WIDTH = 233;
HEIGHT = 220;
LENGTH = 587;

NO_OF_SHAPES = 8;
size = [|
  60,40,32 |
  98,75,55 |
  60,59,39 |
  81,56,40 |
  119,34,25 |
  107,61,42 |
  108,85,20 |
  97,66,45 |
|];

verticality = [|
  1,1,1 |
  1,1,1 |
  1,1,1 |
  0,1,1 |
  0,1,1 |
  0,1,1 |
  0,0,1 |
  0,1,1 |
|];

box_count = [
  16,
  23,
  18,
  14,
  10,
  19,
  20,
  16,
];
